0000000000000000
0000000000000000
0000000000000000
0001111111000000
0000000001000000
0000000001000000
0000000001000000
0000000001000000
0000000001000000
0000000001000000
0000000001000000
0111111111111000
0000000000000000
0000000000000000
0000000000000000
0000000000000000
